(set-info :origin "SVCOMP13 benchmarks generated by Arie Gurfinkel")
(set-info :status unsat)
(set-logic HORN)
(declare-fun cp-rel-entry () Bool)
(declare-fun cp-rel-bb1.i.i35.i.i () Bool)
(declare-fun cp-rel-bb1.i.i (Real Real Real Real) Bool)
(assert |cp-rel-entry|)
(assert (forall ((?A Real) (?B Real) (?C Real) (?D Real) (?E Bool) )(let (($x583936 (and |cp-rel-entry| (<= ?D 0.0) (>= ?C 1.0) (<= ?C 1.0) (>= ?B 1.0) (<= ?B 1.0) (>= ?A 0.0) (<= ?A 0.0) (= ?E true) (>= ?D 0.0))))
(=> $x583936 (|cp-rel-bb1.i.i| ?A ?B ?C ?D))))
)
(assert (forall ((?A Real) (?B Real) (?C Real) (?D Real) (?E Real) (?F Real) (?G Real) (?H Real) (?I Bool) (?J Bool) (?K Bool) (?L Bool) (?M Bool) (?N Bool) (?O Real) (?P Real) (?Q Bool) (?R Bool) (?S Bool) (?T Bool) (?U Bool) (?V Bool) (?W Real) (?X Real) (?Y Bool) (?Z Bool) (?A1 Bool) (?B1 Bool) (?C1 Bool) (?D1 Bool) (?E1 Bool) (?F1 Bool) (?G1 Bool) (?H1 Bool) (?I1 Bool) (?J1 Bool) (?K1 Bool) (?L1 Real) (?M1 Real) (?N1 Bool) (?O1 Bool) (?P1 Bool) (?Q1 Bool) (?R1 Bool) (?S1 Bool) (?T1 Bool) (?U1 Bool) (?V1 Bool) (?W1 Bool) (?X1 Bool) (?Y1 Bool) (?Z1 Bool) (?A2 Real) (?B2 Real) (?C2 Real) (?D2 Real) (?E2 Bool) (?F2 Bool) (?G2 Bool) (?H2 Bool) (?I2 Bool) (?J2 Real) (?K2 Bool) (?L2 Real) (?M2 Real) (?N2 Bool) (?O2 Real) (?P2 Real) (?Q2 Bool) (?R2 Real) (?S2 Bool) (?T2 Bool) (?U2 Bool) (?V2 Bool) (?W2 Bool) )(let (($x644287 (|cp-rel-bb1.i.i| ?E ?F ?G ?H)))
(let (($x700936 (= ?I2 (or ?W2 ?V2))))
(let (($x479543 (or (not ?I) (and ?J ?K (not ?L)))))
(let (($x306294 (or (not ?I) ?K)))
(let (($x347102 (not ?M)))
(let (($x350302 (or $x347102 (and ?I ?N (<= ?O ?P) (>= ?O ?P)) (and ?J ?Q ?L (<= ?O ?B) (>= ?O ?B)))))
(let (($x688006 (or $x347102 (and ?N (not ?Q)) (and ?Q (not ?N)))))
(let (($x319210 (or (not ?R) (and ?M ?S (not ?T)))))
(let (($x42931 (or (not ?R) ?S)))
(let (($x839425 (not ?U)))
(let (($x108702 (or $x839425 (and ?R ?V (<= ?W ?X) (>= ?W ?X)) (and ?M ?Y ?T (<= ?W ?A) (>= ?W ?A)))))
(let (($x251421 (or $x839425 (and ?V (not ?Y)) (and ?Y (not ?V)))))
(let (($x197625 (or (not ?Z) (and ?U ?A1 ?B1))))
(let (($x253695 (or (not ?Z) ?A1)))
(let (($x114708 (or (not ?C1) (and ?Z ?D1 ?E1) (and ?U ?F1 (not ?B1)))))
(let (($x232648 (or (not ?C1) (and ?D1 (not ?F1)) (and ?F1 (not ?D1)))))
(let (($x33729 (or (not ?G1) (and ?C1 ?H1 (not ?I1)))))
(let (($x556361 (or (not ?G1) ?H1)))
(let (($x423454 (or (not ?J1) (and ?G1 ?K1 (<= ?L1 ?M1) (>= ?L1 ?M1)) (and ?C1 ?N1 ?I1 (<= ?L1 ?O) (>= ?L1 ?O)))))
(let (($x391002 (or (not ?J1) (and ?K1 (not ?N1)) (and ?N1 (not ?K1)))))
(let (($x156652 (or (not ?O1) (and ?J1 ?P1 (not ?Q1)))))
(let (($x855196 (or (not ?O1) ?P1)))
(let (($x210182 (or (not ?R1) (and ?O1 ?S1 ?I1))))
(let (($x605907 (or (not ?R1) ?S1)))
(let (($x477903 (or (not ?T1) (and ?O1 ?U1 (not ?I1)))))
(let (($x303830 (or (not ?T1) ?U1)))
(let (($x866535 (or (not ?V1) (and ?T1 ?W1 ?X1))))
(let (($x259923 (or (not ?V1) ?W1)))
(let (($x251034 (>= ?C2 0.0)))
(let (($x646344 (<= ?C2 0.0)))
(let (($x432593 (and ?Z ?H2 (not ?E1) (<= ?A2 0.0) (>= ?A2 0.0) (<= ?B2 ?O) (>= ?B2 ?O) $x646344 $x251034)))
(let (($x268472 (>= ?B2 ?L1)))
(let (($x700362 (<= ?B2 ?L1)))
(let (($x472403 (>= ?A2 ?C)))
(let (($x838963 (<= ?A2 ?C)))
(let (($x420617 (and ?J1 ?G2 ?Q1 $x838963 $x472403 $x700362 $x268472 (<= ?C2 ?D) (>= ?C2 ?D))))
(let (($x228529 (not ?Y1)))
(let (($x585066 (or $x228529 (and ?R1 ?Z1 $x838963 $x472403 $x700362 $x268472 (<= ?C2 ?D2) (>= ?C2 ?D2)) (and ?V1 ?E2 $x838963 $x472403 $x700362 $x268472 (<= ?C2 ?D) (>= ?C2 ?D)) (and ?T1 ?F2 (not ?X1) $x838963 $x472403 $x700362 $x268472 $x646344 $x251034) $x420617 $x432593)))
(let (($x622578 (or $x228529 (and ?Z1 (not ?E2) (not ?F2) (not ?G2) (not ?H2)) (and ?E2 (not ?Z1) (not ?F2) (not ?G2) (not ?H2)) (and ?F2 (not ?Z1) (not ?E2) (not ?G2) (not ?H2)) (and ?G2 (not ?Z1) (not ?E2) (not ?F2) (not ?H2)) (and ?H2 (not ?Z1) (not ?E2) (not ?F2) (not ?G2)))))
(let (($x548634 (= ?Y1 true)))
(let (($x398310 (= ?I2 true)))
(let (($x353313 (= ?L (= ?J2 0.0))))
(let (($x626764 (= ?L2 (ite ?K2 1.0 0.0))))
(let (($x264268 (= ?T (= ?M2 0.0))))
(let (($x409724 (= ?X (ite ?N2 1.0 0.0))))
(let (($x1823 (= ?B1 (= ?O2 0.0))))
(let (($x477834 (= ?E1 (= ?P2 0.0))))
(let (($x37353 (= ?Q2 (not (<= ?O 0.0)))))
(let (($x854684 (= ?R2 (+ (~ 1.0) ?O))))
(let (($x131085 (= ?M1 (ite ?Q2 ?R2 ?O))))
(let (($x866824 (= ?S2 (not (<= ?L1 1.0)))))
(let (($x420329 (= ?T2 (= ?W 0.0))))
(let (($x253458 (= ?U2 (= ?L1 0.0))))
(let (($x314873 (= ?X1 (and ?T2 ?U2))))
(let (($x445176 (= ?V2 (= ?W 0.0))))
(let (($x83568 (= ?W2 (= ?C2 0.0))))
(let (($x119378 (and (|cp-rel-bb1.i.i| ?A ?B ?C ?D) $x83568 $x445176 $x314873 $x253458 $x420329 (= ?D2 (ite ?S2 1.0 ?D)) $x866824 (= ?Q1 (= ?C 0.0)) $x131085 $x854684 $x37353 (= ?I1 (= ?D 0.0)) $x477834 $x1823 $x409724 (= ?N2 (= ?A 0.0)) $x264268 (= ?P (+ ?L2 ?B)) $x626764 (= ?K2 (not (<= 2.0 ?B))) $x353313 (>= ?H ?C2) (<= ?H ?C2) (>= ?G ?A2) (<= ?G ?A2) (>= ?F ?B2) (<= ?F ?B2) (>= ?E ?W) (<= ?E ?W) $x398310 $x548634 $x622578 $x585066 $x259923 $x866535 $x303830 $x477903 $x605907 $x210182 $x855196 $x156652 $x391002 $x423454 $x556361 $x33729 $x232648 $x114708 $x253695 $x197625 $x251421 $x108702 $x42931 $x319210 $x688006 $x350302 $x306294 $x479543 $x700936)))
(=> $x119378 $x644287)))))))))))))))))))))))))))))))))))))))))))))))))))))))))))
)
(assert (forall ((?A Real) (?B Real) (?C Real) (?D Real) (?E Bool) (?F Bool) (?G Bool) (?H Bool) (?I Bool) (?J Bool) (?K Real) (?L Real) (?M Bool) (?N Bool) (?O Bool) (?P Bool) (?Q Bool) (?R Bool) (?S Real) (?T Real) (?U Bool) (?V Bool) (?W Bool) (?X Bool) (?Y Bool) (?Z Bool) (?A1 Bool) (?B1 Bool) (?C1 Bool) (?D1 Bool) (?E1 Bool) (?F1 Bool) (?G1 Bool) (?H1 Real) (?I1 Real) (?J1 Bool) (?K1 Bool) (?L1 Bool) (?M1 Bool) (?N1 Bool) (?O1 Bool) (?P1 Bool) (?Q1 Bool) (?R1 Bool) (?S1 Bool) (?T1 Bool) (?U1 Bool) (?V1 Bool) (?W1 Real) (?X1 Real) (?Y1 Real) (?Z1 Real) (?A2 Bool) (?B2 Bool) (?C2 Bool) (?D2 Bool) (?E2 Bool) (?F2 Real) (?G2 Bool) (?H2 Real) (?I2 Real) (?J2 Bool) (?K2 Real) (?L2 Real) (?M2 Bool) (?N2 Real) (?O2 Bool) (?P2 Bool) (?Q2 Bool) (?R2 Bool) (?S2 Bool) )(let (($x700936 (= ?E2 (or ?S2 ?R2))))
(let (($x479543 (or (not ?E) (and ?F ?G (not ?H)))))
(let (($x306294 (or (not ?E) ?G)))
(let (($x347102 (not ?I)))
(let (($x605402 (or $x347102 (and ?E ?J (<= ?K ?L) (>= ?K ?L)) (and ?F ?M ?H (<= ?K ?B) (>= ?K ?B)))))
(let (($x688006 (or $x347102 (and ?J (not ?M)) (and ?M (not ?J)))))
(let (($x319210 (or (not ?N) (and ?I ?O (not ?P)))))
(let (($x42931 (or (not ?N) ?O)))
(let (($x839425 (not ?Q)))
(let (($x120549 (or $x839425 (and ?N ?R (<= ?S ?T) (>= ?S ?T)) (and ?I ?U ?P (<= ?S ?A) (>= ?S ?A)))))
(let (($x251421 (or $x839425 (and ?R (not ?U)) (and ?U (not ?R)))))
(let (($x197625 (or (not ?V) (and ?Q ?W ?X))))
(let (($x253695 (or (not ?V) ?W)))
(let (($x114708 (or (not ?Y) (and ?V ?Z ?A1) (and ?Q ?B1 (not ?X)))))
(let (($x232648 (or (not ?Y) (and ?Z (not ?B1)) (and ?B1 (not ?Z)))))
(let (($x33729 (or (not ?C1) (and ?Y ?D1 (not ?E1)))))
(let (($x556361 (or (not ?C1) ?D1)))
(let (($x423454 (or (not ?F1) (and ?C1 ?G1 (<= ?H1 ?I1) (>= ?H1 ?I1)) (and ?Y ?J1 ?E1 (<= ?H1 ?K) (>= ?H1 ?K)))))
(let (($x391002 (or (not ?F1) (and ?G1 (not ?J1)) (and ?J1 (not ?G1)))))
(let (($x156652 (or (not ?K1) (and ?F1 ?L1 (not ?M1)))))
(let (($x855196 (or (not ?K1) ?L1)))
(let (($x210182 (or (not ?N1) (and ?K1 ?O1 ?E1))))
(let (($x605907 (or (not ?N1) ?O1)))
(let (($x477903 (or (not ?P1) (and ?K1 ?Q1 (not ?E1)))))
(let (($x303830 (or (not ?P1) ?Q1)))
(let (($x866535 (or (not ?R1) (and ?P1 ?S1 ?T1))))
(let (($x259923 (or (not ?R1) ?S1)))
(let (($x251034 (>= ?Y1 0.0)))
(let (($x646344 (<= ?Y1 0.0)))
(let (($x432593 (and ?V ?D2 (not ?A1) (<= ?W1 0.0) (>= ?W1 0.0) (<= ?X1 ?K) (>= ?X1 ?K) $x646344 $x251034)))
(let (($x268472 (>= ?X1 ?H1)))
(let (($x700362 (<= ?X1 ?H1)))
(let (($x573275 (>= ?W1 ?C)))
(let (($x237727 (<= ?W1 ?C)))
(let (($x545028 (and ?F1 ?C2 ?M1 $x237727 $x573275 $x700362 $x268472 (<= ?Y1 ?D) (>= ?Y1 ?D))))
(let (($x228529 (not ?U1)))
(let (($x66561 (or $x228529 (and ?N1 ?V1 $x237727 $x573275 $x700362 $x268472 (<= ?Y1 ?Z1) (>= ?Y1 ?Z1)) (and ?R1 ?A2 $x237727 $x573275 $x700362 $x268472 (<= ?Y1 ?D) (>= ?Y1 ?D)) (and ?P1 ?B2 (not ?T1) $x237727 $x573275 $x700362 $x268472 $x646344 $x251034) $x545028 $x432593)))
(let (($x622578 (or $x228529 (and ?V1 (not ?A2) (not ?B2) (not ?C2) (not ?D2)) (and ?A2 (not ?V1) (not ?B2) (not ?C2) (not ?D2)) (and ?B2 (not ?V1) (not ?A2) (not ?C2) (not ?D2)) (and ?C2 (not ?V1) (not ?A2) (not ?B2) (not ?D2)) (and ?D2 (not ?V1) (not ?A2) (not ?B2) (not ?C2)))))
(let (($x548634 (= ?U1 true)))
(let (($x353313 (= ?H (= ?F2 0.0))))
(let (($x626764 (= ?H2 (ite ?G2 1.0 0.0))))
(let (($x264268 (= ?P (= ?I2 0.0))))
(let (($x409724 (= ?T (ite ?J2 1.0 0.0))))
(let (($x1823 (= ?X (= ?K2 0.0))))
(let (($x477834 (= ?A1 (= ?L2 0.0))))
(let (($x37353 (= ?M2 (not (<= ?K 0.0)))))
(let (($x854684 (= ?N2 (+ (~ 1.0) ?K))))
(let (($x131085 (= ?I1 (ite ?M2 ?N2 ?K))))
(let (($x866824 (= ?O2 (not (<= ?H1 1.0)))))
(let (($x420329 (= ?P2 (= ?S 0.0))))
(let (($x253458 (= ?Q2 (= ?H1 0.0))))
(let (($x314873 (= ?T1 (and ?P2 ?Q2))))
(let (($x445176 (= ?R2 (= ?S 0.0))))
(let (($x83568 (= ?S2 (= ?Y1 0.0))))
(let (($x644287 (|cp-rel-bb1.i.i| ?A ?B ?C ?D)))
(let (($x167533 (and $x644287 $x83568 $x445176 $x314873 $x253458 $x420329 (= ?Z1 (ite ?O2 1.0 ?D)) $x866824 (= ?M1 (= ?C 0.0)) $x131085 $x854684 $x37353 (= ?E1 (= ?D 0.0)) $x477834 $x1823 $x409724 (= ?J2 (= ?A 0.0)) $x264268 (= ?L (+ ?H2 ?B)) $x626764 (= ?G2 (not (<= 2.0 ?B))) $x353313 (not (= ?E2 true)) $x548634 $x622578 $x66561 $x259923 $x866535 $x303830 $x477903 $x605907 $x210182 $x855196 $x156652 $x391002 $x423454 $x556361 $x33729 $x232648 $x114708 $x253695 $x197625 $x251421 $x120549 $x42931 $x319210 $x688006 $x605402 $x306294 $x479543 $x700936)))
(=> $x167533 |cp-rel-bb1.i.i35.i.i|))))))))))))))))))))))))))))))))))))))))))))))))))))))))))
)
(assert (not cp-rel-bb1.i.i35.i.i))
(check-sat)
